1	14	1	8	29	100	0	0	0	0	0	0
2000	1	0	0	0	0	0	0	0	0	0	0
250	1	0	198.88	0.15	1	0	0	0	0	0	0
250	1	0	198.88	0.15	1	0	0	0	0	0	0
250	1	0	198.88	0.15	1	0	0	0	0	0	0
250	1	0	198.88	0.15	1	0	0	0	0	0	0
250	1	0	198.88	0.15	1	0	0	0	0	0	0
250	1	0	198.88	0.15	1	0	0	0	0	0	0
250	1	0	198.88	0.15	1	0	0	0	0	0	0
250	1	0	198.88	0.15	1	0	0	0	0	0	0
250	1	0	198.88	0.15	1	0	0	0	0	0	0
250	1	0	198.88	0.15	1	0	0	0	0	0	0
250	1	0	198.88	0.15	1	0	0	0	0	0	0
250	1	0	198.88	0.15	1	0	0	0	0	0	0
250	1	0	198.88	0.15	1	0	0	0	0	0	0
250	1	0	198.88	0.15	1	0	0	0	0	0	0
50	150	0	0	0	0	1000	0	0	99999	0	0
25	25	0	0	0	0	1000	0	0	99999	0	0
50	25	0	0	0	0	1000	0	0	99999	0	0
75	25	0	0	0	0	1000	0	0	99999	0	0
25	50	0	0	0	0	1000	0	0	99999	0	0
75	50	0	0	0	0	1000	0	0	99999	0	0
25	75	0	0	0	0	1000	0	0	99999	0	0
50	75	0	0	0	0	1000	0	0	99999	0	0
75	75	0	0	0	0	1000	0	0	99999	0	0
25	25	0	0	0	0	1000	0	0	0	0	0
50	25	0	0	0	0	1000	0	0	0	0	0
75	25	0	0	0	0	1000	0	0	0	0	0
25	50	0	0	0	0	1000	0	0	0	0	0
75	50	0	0	0	0	1000	0	0	0	0	0
25	75	0	0	0	0	1000	0	0	0	0	0
50	75	0	0	0	0	1000	0	0	0	0	0
75	75	0	0	0	0	1000	0	0	0	0	0
35      35      0       0       0       0       230     0       0       0       0       0
61      37      0       0       0       0       230     0       0       0       0       0
74      39      0       0       0       0       230     0       0       0       0       0
47      57      0       0       0       0       230     0       0       0       0       0
57      65      0       0       0       0       230     0       0       0       0       0
29      59      0       0       0       0       230     0       0       0       0       0
34      71      0       0       0       0       230     0       0       0       0       0
22      58      0       0       0       0       230     0       0       0       0       0
7	61	0	0	0	0	1000	0	0	0	0	0
18	41	0	0	0	0	1000	0	0	0	0	0
5	39	0	0	0	0	1000	0	0	0	0	0
14	20	0	0	0	0	1000	0	0	0	0	0
0	26	0	0	0	0	1000	0	0	0	0	0
24	25	0	0	0	0	1000	0	0	0	0	0
26	6	0	0	0	0	1000	0	0	0	0	0
34	20	0	0	0	0	1000	0	0	0	0	0
41	5	0	0	0	0	1000	0	0	0	0	0
50	9	0	0	0	0	1000	0	0	0	0	0
61	14	0	0	0	0	1000	0	0	0	0	0
62	21	0	0	0	0	1000	0	0	0	0	0
74	30	0	0	0	0	1000	0	0	0	0	0
41	49	10	8	2	132	372	10	0	0	0	0
35	17	7	3	4	134	374	10	0	0	0	0
55	45	13	11	2	837	1077	10	0	0	0	0
55	20	19	7	12	788	1028	10	0	0	0	0
15	30	26	13	13	137	377	10	0	0	0	0
25	30	3	3	0	628	868	10	0	0	0	0
20	50	5	2	3	138	378	10	0	0	0	0
10	43	9	2	7	143	383	10	0	0	0	0
55	60	16	15	1	625	865	10	0	0	0	0
30	60	16	8	8	634	874	10	0	0	0	0
20	65	12	4	8	757	997	10	0	0	0	0
50	35	19	13	6	851	1091	10	0	0	0	0
30	25	23	19	4	128	368	10	0	0	0	0
15	10	20	13	7	235	475	10	0	0	0	0
30	5	8	1	7	835	1075	10	0	0	0	0
10	20	19	10	9	592	832	10	0	0	0	0
5	30	2	0	2	798	1038	10	0	0	0	0
20	40	12	6	6	454	694	10	0	0	0	0
15	60	17	4	13	294	534	10	0	0	0	0
45	65	9	6	3	720	960	10	0	0	0	0
45	20	11	5	6	136	376	10	0	0	0	0
45	10	18	4	14	821	1061	10	0	0	0	0
55	5	29	3	26	180	420	10	0	0	0	0
65	35	3	2	1	836	1076	10	0	0	0	0
65	20	6	2	4	150	390	10	0	0	0	0
45	30	17	11	6	189	429	10	0	0	0	0
35	40	16	14	2	384	624	10	0	0	0	0
41	37	16	14	2	422	662	10	0	0	0	0
64	42	9	6	3	836	1076	10	0	0	0	0
40	60	21	14	7	570	810	10	0	0	0	0
31	52	27	16	11	696	936	10	0	0	0	0
35	69	23	12	11	483	723	10	0	0	0	0
53	52	11	11	0	325	565	10	0	0	0	0
65	55	14	12	2	153	393	10	0	0	0	0
63	65	8	8	0	806	1046	10	0	0	0	0
2	60	5	0	5	824	1064	10	0	0	0	0
20	20	8	8	0	585	825	10	0	0	0	0
5	5	16	16	0	656	896	10	0	0	0	0
60	12	31	6	25	358	598	10	0	0	0	0
40	25	9	6	3	777	1017	10	0	0	0	0
42	7	5	1	4	837	1077	10	0	0	0	0
24	12	5	3	2	142	382	10	0	0	0	0
23	3	7	1	6	466	706	10	0	0	0	0
11	14	18	14	4	642	882	10	0	0	0	0
6	38	16	3	13	836	1076	10	0	0	0	0
2	48	1	0	1	152	392	10	0	0	0	0
8	56	27	4	23	687	927	10	0	0	0	0
13	52	36	9	27	484	724	10	0	0	0	0
6	68	30	3	27	819	1059	10	0	0	0	0
47	47	13	13	0	549	789	10	0	0	0	0
49	58	10	8	2	837	1077	10	0	0	0	0
27	43	9	6	3	308	548	10	0	0	0	0
37	31	14	12	2	448	688	10	0	0	0	0
57	29	18	9	9	139	379	10	0	0	0	0
63	23	2	1	1	501	741	10	0	0	0	0
53	12	6	1	5	836	1076	10	0	0	0	0
32	12	7	3	4	525	765	10	0	0	0	0
36	26	18	13	5	453	693	10	0	0	0	0
21	24	28	25	3	134	374	10	0	0	0	0
17	34	3	2	1	651	891	10	0	0	0	0
12	24	13	7	6	436	676	10	0	0	0	0
24	58	19	8	11	840	1080	10	0	0	0	0
27	69	10	4	6	831	1071	10	0	0	0	0
15	77	9	2	7	766	1006	10	0	0	0	0
62	77	20	16	4	166	406	10	0	0	0	0
49	73	25	17	8	673	913	10	0	0	0	0
67	5	25	2	23	160	400	10	0	0	0	0
56	39	36	25	11	388	628	10	0	0	0	0
37	47	6	5	1	526	766	10	0	0	0	0
37	56	5	3	2	138	378	10	0	0	0	0
57	68	15	13	2	749	989	10	0	0	0	0
47	16	25	9	16	174	414	10	0	0	0	0
44	17	9	3	6	845	1085	10	0	0	0	0
46	13	8	2	6	498	738	10	0	0	0	0
49	11	18	4	14	582	822	10	0	0	0	0
49	42	13	11	2	282	522	10	0	0	0	0
53	43	14	11	3	151	391	10	0	0	0	0
61	52	3	3	0	315	555	10	0	0	0	0
57	48	23	19	4	142	382	10	0	0	0	0
56	37	6	4	2	138	378	10	0	0	0	0
55	54	26	26	0	144	384	10	0	0	0	0
15	47	16	5	11	746	986	10	0	0	0	0
14	37	11	4	7	607	847	10	0	0	0	0
11	31	7	2	5	377	617	10	0	0	0	0
16	22	41	30	11	644	884	10	0	0	0	0
4	18	35	8	27	830	1070	10	0	0	0	0
28	18	26	17	9	545	785	10	0	0	0	0
26	52	9	5	4	387	627	10	0	0	0	0
26	35	15	11	4	622	862	10	0	0	0	0
31	67	3	1	2	580	820	10	0	0	0	0
15	19	1	1	0	536	776	10	0	0	0	0
22	22	2	2	0	307	547	10	0	0	0	0
18	24	22	17	5	600	840	10	0	0	0	0
26	27	27	26	1	584	824	10	0	0	0	0
25	24	20	19	1	131	371	10	0	0	0	0
22	27	11	9	2	850	1090	10	0	0	0	0
25	21	12	10	2	597	837	10	0	0	0	0
19	21	10	9	1	479	719	10	0	0	0	0
20	26	9	7	2	143	383	10	0	0	0	0
18	18	17	17	0	141	381	10	0	0	0	0
